n_nodes = 30;
edges = [
	{2, 3, 4, 6, 13, 14, 15, 22, 23, 26, 27},
	{3, 4, 6, 13, 14, 15, 22, 23, 27},
	{4, 6, 13, 14, 15, 22, 23, 30},
	{6, 13, 14, 15, 17, 19, 20, 23, 25, 26, 27},
	{9, 10, 26, 12},
	{7, 9, 11, 13, 14, 15, 17, 18, 19, 21, 22, 23, 28, 30},
	{8, 9, 11, 17, 18, 19, 20, 21, 25},
	{9, 10, 11, 12, 14, 22, 23, 28},
	{10, 11, 12, 20, 21, 24, 30},
	{11, 12, 15, 18, 20, 21},
	{12, 15, 16, 17, 18, 19, 20, 21, 24, 25, 27, 30},
	{13, 16, 17, 18, 19, 20, 24},
	{14, 15, 19, 22, 23, 27},
	{27, 23, 15},
	{16, 17, 19, 20, 22, 23, 24, 25, 27},
	{27, 17, 18, 19},
	{18, 19, 20, 21, 24, 25, 26, 27, 30},
	{19, 20, 21, 24, 25, 26, 28},
	{20, 21, 24, 25, 26, 28, 30},
	{24, 25, 26, 21},
	{25, 26},
	{29, 30, 23},
	{28, 29, 30},
	{25, 26, 27},
	{26, 27},
	{27},
	{ },
	{29, 30},
	{30},
	{ }
];